(set-logic QF_S)
(declare-fun var0 () String)
(declare-fun var1 () String)
(declare-fun var2 () String)
(declare-fun var3 () String)
(declare-fun var4 () Int)
(declare-fun var5 () Int)
(declare-fun var6 () Int)
(assert (not (str.suffixof (str.at var0 25) (str.replace var1 var2 var3))))
(assert (str.suffixof (str.at ")$" var4) (str.substr var1 123 var5)))
(assert (str.prefixof (str.replace var2 var2 var2) (str.substr var0 var6 192)))
(assert (str.in.re var3 re.allchar))
(check-sat)